NAME : tsp_370_sol.txt
COMMENT : OR-Tools Guided Local Search
TYPE : TOUR
DIMENSION : 50
COST : 5748
STATUS : ROUTING_SUCCESS
GAP : 0.00% (Reference Solution)
TOUR_SECTION
1
5
21
14
37
39
20
49
27
31
23
45
11
48
34
22
16
13
18
4
38
44
33
46
50
12
17
19
42
2
10
25
41
47
24
32
35
36
28
3
7
8
43
15
26
40
6
29
30
9
-1
